
Gurobi 11.0.0 (linux64) logging started Tue Sep 17 03:26:41 2024

Set parameter LogFile to value "gurobi.log"
Set parameter InfUnbdInfo to value 1
Gurobi Optimizer version 11.0.0 build v11.0.0rc2 (linux64 - "Ubuntu 22.04.4 LTS")

CPU model: AMD EPYC 7V13 64-Core Processor, instruction set [SSE2|AVX|AVX2]
Thread count: 128 physical cores, 128 logical processors, using up to 32 threads

Optimize a model with 63 rows, 240 columns and 157 nonzeros
Model fingerprint: 0x3f7ed6c1
Model has 192 quadratic constraints
Model has 3 general constraints
Variable types: 67 continuous, 173 integer (0 binary)
Coefficient statistics:
  Matrix range     [1e+00, 6e+04]
  QMatrix range    [1e+00, 6e+04]
  QLMatrix range   [1e+00, 6e+04]
  Objective range  [1e+00, 1e+00]
  Bounds range     [1e+00, 4e+09]
  RHS range        [1e+00, 2e+06]
  QRHS range       [1e+00, 2e+06]
Warning: Model contains large bounds
         Consider reformulating model or setting NumericFocus parameter
         to avoid numerical issues.
Using branch priorities (all 0).
Presolve added 86 rows and 41 columns
Presolve time: 0.01s
Presolved: 626 rows, 330 columns, 2628 nonzeros
Presolved model has 10 SOS constraint(s)
Presolved model has 92 bilinear constraint(s)
Warning: Model contains variables with very large bounds participating
         in product terms.
         Presolve was not able to compute smaller bounds for these variables.
         Consider bounding these variables or reformulating the model.


Solving non-convex MIQCP

Variable types: 155 continuous, 175 integer (50 binary)

Root relaxation: objective 5.500000e+02, 113 iterations, 0.00 seconds (0.00 work units)

    Nodes    |    Current Node    |     Objective Bounds      |     Work
 Expl Unexpl |  Obj  Depth IntInf | Incumbent    BestBd   Gap | It/Node Time

     0     0  550.00000    0   40          -  550.00000      -     -    0s
     0     0  930.00010    0   86          -  930.00010      -     -    0s
     0     0  930.00010    0   86          -  930.00010      -     -    0s
H    0     0                    505524.00000  930.00010   100%     -    0s
H    0     0                    505149.00000  930.00010   100%     -    0s
     0     0 1064.37222    0  105 505149.000 1064.37222   100%     -    0s
H    0     0                    503649.00000 1066.27292   100%     -    0s
     0     0 1178.77416    0  128 503649.000 1178.77416   100%     -    0s
     0     0 1179.02970    0  126 503649.000 1179.02970   100%     -    0s
     0     0 1478.10167    0  113 503649.000 1478.10167   100%     -    0s
H    0     0                    138808.00000 1556.76834  98.9%     -    0s
H    0     0                    107558.00000 1556.76834  98.6%     -    0s
     0     0 1559.10193    0  134 107558.000 1559.10193  98.6%     -    0s
     0     0 1583.12858    0  135 107558.000 1583.12858  98.5%     -    0s
H    0     0                    99524.000000 1592.92736  98.4%     -    0s
     0     0 1592.92736    0  134 99524.0000 1592.92736  98.4%     -    0s
     0     0 1603.75011    0  135 99524.0000 1603.75011  98.4%     -    0s
     0     0 1762.43684    0  137 99524.0000 1762.43684  98.2%     -    0s
     0     0 1762.43684    0  132 99524.0000 1762.43684  98.2%     -    0s
     0     0 1937.00278    0  132 99524.0000 1937.00278  98.1%     -    0s
     0     0 1937.00278    0  125 99524.0000 1937.00278  98.1%     -    0s
H    0     0                    97399.000000 1937.00278  98.0%     -    0s
     0     0 1937.00278    0  131 97399.0000 1937.00278  98.0%     -    0s
     0     0 1937.00278    0  131 97399.0000 1937.00278  98.0%     -    0s
     0     0 2054.20472    0  131 97399.0000 2054.20472  97.9%     -    0s
     0     0 3581.95181    0  131 97399.0000 3581.95181  96.3%     -    0s
     0     0 6302.40964    0  131 97399.0000 6302.40964  93.5%     -    0s
     0     0 8987.36145    0  131 97399.0000 8987.36145  90.8%     -    0s
     0     0 11131.3988    0  125 97399.0000 11131.3988  88.6%     -    0s
     0     0 11131.3988    0   71 97399.0000 11131.3988  88.6%     -    0s
     0     0 11131.3988    0  115 97399.0000 11131.3988  88.6%     -    0s
     0     0 11131.3988    0  102 97399.0000 11131.3988  88.6%     -    0s
     0     0 11131.3988    0   94 97399.0000 11131.3988  88.6%     -    0s
     0     0 11131.3988    0  113 97399.0000 11131.3988  88.6%     -    0s
     0     0 11131.3988    0  104 97399.0000 11131.3988  88.6%     -    0s
     0     0 12287.4575    0  103 97399.0000 12287.4575  87.4%     -    0s
H    0     0                    66024.000000 12287.4575  81.4%     -    0s
     0     0 37056.4843    0  113 66024.0000 37056.4843  43.9%     -    0s
     0     0 43989.0364    0  115 66024.0000 43989.0364  33.4%     -    0s
     0     0 52063.3138    0  115 66024.0000 52063.3138  21.1%     -    0s
     0     0 53704.5824    0  117 66024.0000 53704.5824  18.7%     -    0s
     0     0 56565.7395    0  119 66024.0000 56565.7395  14.3%     -    0s
     0     0 57537.5927    0  119 66024.0000 57537.5927  12.9%     -    0s
     0     0 59566.7286    0  119 66024.0000 59566.7286  9.78%     -    0s
     0     0 60082.1286    0  119 66024.0000 60082.1286  9.00%     -    0s
     0     0 61013.9526    0  119 66024.0000 61013.9526  7.59%     -    0s
     0     0 61801.8258    0  119 66024.0000 61801.8258  6.39%     -    0s
     0     2 61801.8258    0  117 66024.0000 61801.8258  6.39%     -    1s
H  135    75                    65280.992291 63068.4761  3.39%  11.1    1s
H  143    75                    64709.760490 63072.6534  2.53%  11.1    1s
*  183   101              12    63395.520980 63073.2910  0.51%  10.1    1s

Cutting planes:
  Learned: 2
  Gomory: 7
  Implied bound: 13
  MIR: 37
  Flow cover: 2
  RLT: 31

Explored 619 nodes (5472 simplex iterations) in 1.57 seconds (0.20 work units)
Thread count was 32 (of 128 available processors)

Solution count 10: 63395.5 64709.8 65281 ... 505149

Optimal solution found (tolerance 1.00e-10)
Best objective 6.339552097999e+04, best bound 6.339552097999e+04, gap 0.0000%
